(set-info :smt-lib-version 2.6)
(set-logic QF_BV)
(set-info :source |
            Generated by: Samuel Coward
            Generated on: 2025-08-12
            Generator: CIRCT
            Application: Datapath synthesis of digital circuits 
            Target solver: Bitwuzla
            Time limit: 300.0
            Benchmarks generated by the CIRCT tool to check correctness of lowering
            from word-level bitvector circuit to a gate-level netlist.
            Using compressor tree circuits proves challenging for SMT.|)
(set-info :license "https://creativecommons.org/licenses/by/4.0/")
(set-info :category "industrial")
(set-info :status unsat)

; solver scope 0
(declare-const tmp (_ BitVec 4))
(declare-const tmp_0 (_ BitVec 4))
(declare-const tmp_1 (_ BitVec 4))
(declare-const tmp_2 (_ BitVec 4))
(assert (let ((tmp_3 ((_ extract 0 0) tmp_1)))
        (let ((tmp_4 ((_ extract 0 0) tmp_2)))
        (let ((tmp_5 (bvand tmp_4 tmp_3)))
        (let ((tmp_6 ((_ extract 0 0) tmp)))
        (let ((tmp_7 ((_ extract 0 0) tmp_0)))
        (let ((tmp_8 (bvand tmp_7 tmp_6)))
        (let ((tmp_9 (bvand tmp_8 tmp_5)))
        (let ((tmp_10 (bvxor tmp_9 #b1)))
        (let ((tmp_11 (bvxor tmp_5 #b1)))
        (let ((tmp_12 (bvxor tmp_8 #b1)))
        (let ((tmp_13 (bvand tmp_12 tmp_11)))
        (let ((tmp_14 (bvxor tmp_13 #b1)))
        (let ((tmp_15 (bvand tmp_14 tmp_10)))
        (let ((tmp_16 ((_ extract 1 1) tmp_2)))
        (let ((tmp_17 (bvand tmp_16 tmp_3)))
        (let ((tmp_18 ((_ extract 1 1) tmp_1)))
        (let ((tmp_19 (bvand tmp_4 tmp_18)))
        (let ((tmp_20 (bvand tmp_19 tmp_17)))
        (let ((tmp_21 (bvxor tmp_20 #b1)))
        (let ((tmp_22 (bvxor tmp_17 #b1)))
        (let ((tmp_23 (bvxor tmp_19 #b1)))
        (let ((tmp_24 (bvand tmp_23 tmp_22)))
        (let ((tmp_25 (bvxor tmp_24 #b1)))
        (let ((tmp_26 (bvand tmp_25 tmp_21)))
        (let ((tmp_27 ((_ extract 1 1) tmp_0)))
        (let ((tmp_28 (bvand tmp_27 tmp_6)))
        (let ((tmp_29 ((_ extract 1 1) tmp)))
        (let ((tmp_30 (bvand tmp_7 tmp_29)))
        (let ((tmp_31 (bvand tmp_30 tmp_28)))
        (let ((tmp_32 (bvxor tmp_31 #b1)))
        (let ((tmp_33 (bvxor tmp_28 #b1)))
        (let ((tmp_34 (bvxor tmp_30 #b1)))
        (let ((tmp_35 (bvand tmp_34 tmp_33)))
        (let ((tmp_36 (bvxor tmp_35 #b1)))
        (let ((tmp_37 (bvand tmp_36 tmp_32)))
        (let ((tmp_38 (bvand tmp_37 tmp_26)))
        (let ((tmp_39 (bvxor tmp_38 #b1)))
        (let ((tmp_40 (bvxor tmp_26 #b1)))
        (let ((tmp_41 (bvxor tmp_37 #b1)))
        (let ((tmp_42 (bvand tmp_41 tmp_40)))
        (let ((tmp_43 (bvxor tmp_42 #b1)))
        (let ((tmp_44 (bvand tmp_43 tmp_39)))
        (let ((tmp_45 (bvand tmp_44 tmp_9)))
        (let ((tmp_46 (bvxor tmp_45 #b1)))
        (let ((tmp_47 (bvxor tmp_44 #b1)))
        (let ((tmp_48 (bvand tmp_47 tmp_10)))
        (let ((tmp_49 (bvxor tmp_48 #b1)))
        (let ((tmp_50 (bvand tmp_49 tmp_46)))
        (let ((tmp_51 ((_ extract 2 2) tmp_2)))
        (let ((tmp_52 (bvand tmp_51 tmp_3)))
        (let ((tmp_53 (bvand tmp_20 tmp_52)))
        (let ((tmp_54 (bvxor tmp_53 #b1)))
        (let ((tmp_55 (bvxor tmp_52 #b1)))
        (let ((tmp_56 (bvand tmp_21 tmp_55)))
        (let ((tmp_57 (bvxor tmp_56 #b1)))
        (let ((tmp_58 (bvand tmp_57 tmp_54)))
        (let ((tmp_59 (bvand tmp_16 tmp_18)))
        (let ((tmp_60 ((_ extract 2 2) tmp_1)))
        (let ((tmp_61 (bvand tmp_4 tmp_60)))
        (let ((tmp_62 (bvand tmp_61 tmp_59)))
        (let ((tmp_63 (bvxor tmp_62 #b1)))
        (let ((tmp_64 (bvxor tmp_59 #b1)))
        (let ((tmp_65 (bvxor tmp_61 #b1)))
        (let ((tmp_66 (bvand tmp_65 tmp_64)))
        (let ((tmp_67 (bvxor tmp_66 #b1)))
        (let ((tmp_68 (bvand tmp_67 tmp_63)))
        (let ((tmp_69 ((_ extract 2 2) tmp_0)))
        (let ((tmp_70 (bvand tmp_69 tmp_6)))
        (let ((tmp_71 (bvand tmp_27 tmp_29)))
        (let ((tmp_72 ((_ extract 2 2) tmp)))
        (let ((tmp_73 (bvand tmp_7 tmp_72)))
        (let ((tmp_74 (bvand tmp_73 tmp_71)))
        (let ((tmp_75 (bvxor tmp_74 #b1)))
        (let ((tmp_76 (bvxor tmp_71 #b1)))
        (let ((tmp_77 (bvxor tmp_73 #b1)))
        (let ((tmp_78 (bvand tmp_77 tmp_76)))
        (let ((tmp_79 (bvxor tmp_78 #b1)))
        (let ((tmp_80 (bvand tmp_79 tmp_75)))
        (let ((tmp_81 (bvand tmp_80 tmp_70)))
        (let ((tmp_82 (bvxor tmp_81 #b1)))
        (let ((tmp_83 (bvxor tmp_70 #b1)))
        (let ((tmp_84 (bvxor tmp_80 #b1)))
        (let ((tmp_85 (bvand tmp_84 tmp_83)))
        (let ((tmp_86 (bvxor tmp_85 #b1)))
        (let ((tmp_87 (bvand tmp_86 tmp_82)))
        (let ((tmp_88 (bvand tmp_87 tmp_31)))
        (let ((tmp_89 (bvxor tmp_88 #b1)))
        (let ((tmp_90 (bvxor tmp_87 #b1)))
        (let ((tmp_91 (bvand tmp_90 tmp_32)))
        (let ((tmp_92 (bvxor tmp_91 #b1)))
        (let ((tmp_93 (bvand tmp_92 tmp_89)))
        (let ((tmp_94 (bvand tmp_93 tmp_68)))
        (let ((tmp_95 (bvxor tmp_94 #b1)))
        (let ((tmp_96 (bvxor tmp_68 #b1)))
        (let ((tmp_97 (bvxor tmp_93 #b1)))
        (let ((tmp_98 (bvand tmp_97 tmp_96)))
        (let ((tmp_99 (bvxor tmp_98 #b1)))
        (let ((tmp_100 (bvand tmp_99 tmp_95)))
        (let ((tmp_101 (bvand tmp_100 tmp_38)))
        (let ((tmp_102 (bvxor tmp_101 #b1)))
        (let ((tmp_103 (bvxor tmp_100 #b1)))
        (let ((tmp_104 (bvand tmp_103 tmp_39)))
        (let ((tmp_105 (bvxor tmp_104 #b1)))
        (let ((tmp_106 (bvand tmp_105 tmp_102)))
        (let ((tmp_107 (bvand tmp_106 tmp_58)))
        (let ((tmp_108 (bvxor tmp_107 #b1)))
        (let ((tmp_109 (bvxor tmp_58 #b1)))
        (let ((tmp_110 (bvxor tmp_106 #b1)))
        (let ((tmp_111 (bvand tmp_110 tmp_109)))
        (let ((tmp_112 (bvxor tmp_111 #b1)))
        (let ((tmp_113 (bvand tmp_112 tmp_108)))
        (let ((tmp_114 (bvand tmp_113 tmp_45)))
        (let ((tmp_115 (bvxor tmp_114 #b1)))
        (let ((tmp_116 (bvxor tmp_113 #b1)))
        (let ((tmp_117 (bvand tmp_116 tmp_46)))
        (let ((tmp_118 (bvxor tmp_117 #b1)))
        (let ((tmp_119 (bvand tmp_118 tmp_115)))
        (let ((tmp_120 (bvand tmp_102 tmp_108)))
        (let ((tmp_121 (bvxor tmp_120 #b1)))
        (let ((tmp_122 ((_ extract 3 3) tmp_2)))
        (let ((tmp_123 (bvand tmp_122 tmp_3)))
        (let ((tmp_124 (bvand tmp_51 tmp_18)))
        (let ((tmp_125 (bvand tmp_62 tmp_124)))
        (let ((tmp_126 (bvxor tmp_125 #b1)))
        (let ((tmp_127 (bvxor tmp_124 #b1)))
        (let ((tmp_128 (bvand tmp_63 tmp_127)))
        (let ((tmp_129 (bvxor tmp_128 #b1)))
        (let ((tmp_130 (bvand tmp_129 tmp_126)))
        (let ((tmp_131 (bvand tmp_130 tmp_123)))
        (let ((tmp_132 (bvxor tmp_131 #b1)))
        (let ((tmp_133 (bvxor tmp_123 #b1)))
        (let ((tmp_134 (bvxor tmp_130 #b1)))
        (let ((tmp_135 (bvand tmp_134 tmp_133)))
        (let ((tmp_136 (bvxor tmp_135 #b1)))
        (let ((tmp_137 (bvand tmp_136 tmp_132)))
        (let ((tmp_138 (bvand tmp_89 tmp_95)))
        (let ((tmp_139 (bvxor tmp_138 #b1)))
        (let ((tmp_140 (bvand tmp_16 tmp_60)))
        (let ((tmp_141 ((_ extract 3 3) tmp_1)))
        (let ((tmp_142 (bvand tmp_4 tmp_141)))
        (let ((tmp_143 ((_ extract 3 3) tmp_0)))
        (let ((tmp_144 (bvand tmp_143 tmp_6)))
        (let ((tmp_145 (bvand tmp_144 tmp_142)))
        (let ((tmp_146 (bvxor tmp_145 #b1)))
        (let ((tmp_147 (bvxor tmp_142 #b1)))
        (let ((tmp_148 (bvxor tmp_144 #b1)))
        (let ((tmp_149 (bvand tmp_148 tmp_147)))
        (let ((tmp_150 (bvxor tmp_149 #b1)))
        (let ((tmp_151 (bvand tmp_150 tmp_146)))
        (let ((tmp_152 (bvand tmp_151 tmp_140)))
        (let ((tmp_153 (bvxor tmp_152 #b1)))
        (let ((tmp_154 (bvxor tmp_140 #b1)))
        (let ((tmp_155 (bvxor tmp_151 #b1)))
        (let ((tmp_156 (bvand tmp_155 tmp_154)))
        (let ((tmp_157 (bvxor tmp_156 #b1)))
        (let ((tmp_158 (bvand tmp_157 tmp_153)))
        (let ((tmp_159 (bvand tmp_75 tmp_82)))
        (let ((tmp_160 (bvxor tmp_159 #b1)))
        (let ((tmp_161 (bvand tmp_69 tmp_29)))
        (let ((tmp_162 (bvand tmp_27 tmp_72)))
        (let ((tmp_163 ((_ extract 3 3) tmp)))
        (let ((tmp_164 (bvand tmp_7 tmp_163)))
        (let ((tmp_165 (bvand tmp_164 tmp_162)))
        (let ((tmp_166 (bvxor tmp_165 #b1)))
        (let ((tmp_167 (bvxor tmp_162 #b1)))
        (let ((tmp_168 (bvxor tmp_164 #b1)))
        (let ((tmp_169 (bvand tmp_168 tmp_167)))
        (let ((tmp_170 (bvxor tmp_169 #b1)))
        (let ((tmp_171 (bvand tmp_170 tmp_166)))
        (let ((tmp_172 (bvand tmp_171 tmp_161)))
        (let ((tmp_173 (bvxor tmp_172 #b1)))
        (let ((tmp_174 (bvxor tmp_161 #b1)))
        (let ((tmp_175 (bvxor tmp_171 #b1)))
        (let ((tmp_176 (bvand tmp_175 tmp_174)))
        (let ((tmp_177 (bvxor tmp_176 #b1)))
        (let ((tmp_178 (bvand tmp_177 tmp_173)))
        (let ((tmp_179 (bvand tmp_178 tmp_160)))
        (let ((tmp_180 (bvxor tmp_179 #b1)))
        (let ((tmp_181 (bvxor tmp_178 #b1)))
        (let ((tmp_182 (bvand tmp_181 tmp_159)))
        (let ((tmp_183 (bvxor tmp_182 #b1)))
        (let ((tmp_184 (bvand tmp_183 tmp_180)))
        (let ((tmp_185 (bvand tmp_184 tmp_158)))
        (let ((tmp_186 (bvxor tmp_185 #b1)))
        (let ((tmp_187 (bvxor tmp_158 #b1)))
        (let ((tmp_188 (bvxor tmp_184 #b1)))
        (let ((tmp_189 (bvand tmp_188 tmp_187)))
        (let ((tmp_190 (bvxor tmp_189 #b1)))
        (let ((tmp_191 (bvand tmp_190 tmp_186)))
        (let ((tmp_192 (bvand tmp_191 tmp_139)))
        (let ((tmp_193 (bvxor tmp_192 #b1)))
        (let ((tmp_194 (bvxor tmp_191 #b1)))
        (let ((tmp_195 (bvand tmp_194 tmp_138)))
        (let ((tmp_196 (bvxor tmp_195 #b1)))
        (let ((tmp_197 (bvand tmp_196 tmp_193)))
        (let ((tmp_198 (bvand tmp_197 tmp_137)))
        (let ((tmp_199 (bvxor tmp_198 #b1)))
        (let ((tmp_200 (bvxor tmp_137 #b1)))
        (let ((tmp_201 (bvxor tmp_197 #b1)))
        (let ((tmp_202 (bvand tmp_201 tmp_200)))
        (let ((tmp_203 (bvxor tmp_202 #b1)))
        (let ((tmp_204 (bvand tmp_203 tmp_199)))
        (let ((tmp_205 (bvand tmp_204 tmp_121)))
        (let ((tmp_206 (bvxor tmp_205 #b1)))
        (let ((tmp_207 (bvxor tmp_204 #b1)))
        (let ((tmp_208 (bvand tmp_207 tmp_120)))
        (let ((tmp_209 (bvxor tmp_208 #b1)))
        (let ((tmp_210 (bvand tmp_209 tmp_206)))
        (let ((tmp_211 (bvand tmp_210 tmp_53)))
        (let ((tmp_212 (bvxor tmp_211 #b1)))
        (let ((tmp_213 (bvxor tmp_210 #b1)))
        (let ((tmp_214 (bvand tmp_213 tmp_54)))
        (let ((tmp_215 (bvxor tmp_214 #b1)))
        (let ((tmp_216 (bvand tmp_215 tmp_212)))
        (let ((tmp_217 (bvand tmp_216 tmp_114)))
        (let ((tmp_218 (bvxor tmp_217 #b1)))
        (let ((tmp_219 (bvxor tmp_216 #b1)))
        (let ((tmp_220 (bvand tmp_219 tmp_115)))
        (let ((tmp_221 (bvxor tmp_220 #b1)))
        (let ((tmp_222 (bvand tmp_221 tmp_218)))
        (let ((tmp_223 (bvand tmp_206 tmp_212)))
        (let ((tmp_224 (bvxor tmp_223 #b1)))
        (let ((tmp_225 (bvand tmp_126 tmp_132)))
        (let ((tmp_226 (bvxor tmp_225 #b1)))
        (let ((tmp_227 (bvand tmp_193 tmp_199)))
        (let ((tmp_228 (bvxor tmp_227 #b1)))
        (let ((tmp_229 (bvand tmp_122 tmp_18)))
        (let ((tmp_230 (bvand tmp_51 tmp_60)))
        (let ((tmp_231 (bvand tmp_146 tmp_153)))
        (let ((tmp_232 (bvxor tmp_231 #b1)))
        (let ((tmp_233 (bvand tmp_232 tmp_230)))
        (let ((tmp_234 (bvxor tmp_233 #b1)))
        (let ((tmp_235 (bvxor tmp_230 #b1)))
        (let ((tmp_236 (bvand tmp_231 tmp_235)))
        (let ((tmp_237 (bvxor tmp_236 #b1)))
        (let ((tmp_238 (bvand tmp_237 tmp_234)))
        (let ((tmp_239 (bvand tmp_238 tmp_229)))
        (let ((tmp_240 (bvxor tmp_239 #b1)))
        (let ((tmp_241 (bvxor tmp_229 #b1)))
        (let ((tmp_242 (bvxor tmp_238 #b1)))
        (let ((tmp_243 (bvand tmp_242 tmp_241)))
        (let ((tmp_244 (bvxor tmp_243 #b1)))
        (let ((tmp_245 (bvand tmp_244 tmp_240)))
        (let ((tmp_246 (bvand tmp_180 tmp_186)))
        (let ((tmp_247 (bvxor tmp_246 #b1)))
        (let ((tmp_248 (bvand tmp_16 tmp_141)))
        (let ((tmp_249 (bvand tmp_143 tmp_29)))
        (let ((tmp_250 (bvand tmp_249 tmp_248)))
        (let ((tmp_251 (bvxor tmp_250 #b1)))
        (let ((tmp_252 (bvxor tmp_248 #b1)))
        (let ((tmp_253 (bvxor tmp_249 #b1)))
        (let ((tmp_254 (bvand tmp_253 tmp_252)))
        (let ((tmp_255 (bvxor tmp_254 #b1)))
        (let ((tmp_256 (bvand tmp_255 tmp_251)))
        (let ((tmp_257 (bvand tmp_166 tmp_173)))
        (let ((tmp_258 (bvxor tmp_257 #b1)))
        (let ((tmp_259 (bvand tmp_69 tmp_72)))
        (let ((tmp_260 (bvand tmp_27 tmp_163)))
        (let ((tmp_261 (bvand tmp_260 tmp_259)))
        (let ((tmp_262 (bvxor tmp_261 #b1)))
        (let ((tmp_263 (bvxor tmp_259 #b1)))
        (let ((tmp_264 (bvxor tmp_260 #b1)))
        (let ((tmp_265 (bvand tmp_264 tmp_263)))
        (let ((tmp_266 (bvxor tmp_265 #b1)))
        (let ((tmp_267 (bvand tmp_266 tmp_262)))
        (let ((tmp_268 (bvand tmp_267 tmp_258)))
        (let ((tmp_269 (bvxor tmp_268 #b1)))
        (let ((tmp_270 (bvxor tmp_267 #b1)))
        (let ((tmp_271 (bvand tmp_270 tmp_257)))
        (let ((tmp_272 (bvxor tmp_271 #b1)))
        (let ((tmp_273 (bvand tmp_272 tmp_269)))
        (let ((tmp_274 (bvand tmp_273 tmp_256)))
        (let ((tmp_275 (bvxor tmp_274 #b1)))
        (let ((tmp_276 (bvxor tmp_256 #b1)))
        (let ((tmp_277 (bvxor tmp_273 #b1)))
        (let ((tmp_278 (bvand tmp_277 tmp_276)))
        (let ((tmp_279 (bvxor tmp_278 #b1)))
        (let ((tmp_280 (bvand tmp_279 tmp_275)))
        (let ((tmp_281 (bvand tmp_280 tmp_247)))
        (let ((tmp_282 (bvxor tmp_281 #b1)))
        (let ((tmp_283 (bvxor tmp_280 #b1)))
        (let ((tmp_284 (bvand tmp_283 tmp_246)))
        (let ((tmp_285 (bvxor tmp_284 #b1)))
        (let ((tmp_286 (bvand tmp_285 tmp_282)))
        (let ((tmp_287 (bvand tmp_286 tmp_245)))
        (let ((tmp_288 (bvxor tmp_287 #b1)))
        (let ((tmp_289 (bvxor tmp_245 #b1)))
        (let ((tmp_290 (bvxor tmp_286 #b1)))
        (let ((tmp_291 (bvand tmp_290 tmp_289)))
        (let ((tmp_292 (bvxor tmp_291 #b1)))
        (let ((tmp_293 (bvand tmp_292 tmp_288)))
        (let ((tmp_294 (bvand tmp_293 tmp_228)))
        (let ((tmp_295 (bvxor tmp_294 #b1)))
        (let ((tmp_296 (bvxor tmp_293 #b1)))
        (let ((tmp_297 (bvand tmp_296 tmp_227)))
        (let ((tmp_298 (bvxor tmp_297 #b1)))
        (let ((tmp_299 (bvand tmp_298 tmp_295)))
        (let ((tmp_300 (bvand tmp_299 tmp_226)))
        (let ((tmp_301 (bvxor tmp_300 #b1)))
        (let ((tmp_302 (bvxor tmp_299 #b1)))
        (let ((tmp_303 (bvand tmp_302 tmp_225)))
        (let ((tmp_304 (bvxor tmp_303 #b1)))
        (let ((tmp_305 (bvand tmp_304 tmp_301)))
        (let ((tmp_306 (bvand tmp_305 tmp_224)))
        (let ((tmp_307 (bvxor tmp_306 #b1)))
        (let ((tmp_308 (bvxor tmp_305 #b1)))
        (let ((tmp_309 (bvand tmp_308 tmp_223)))
        (let ((tmp_310 (bvxor tmp_309 #b1)))
        (let ((tmp_311 (bvand tmp_310 tmp_307)))
        (let ((tmp_312 (bvand tmp_311 tmp_217)))
        (let ((tmp_313 (bvxor tmp_312 #b1)))
        (let ((tmp_314 (bvxor tmp_311 #b1)))
        (let ((tmp_315 (bvand tmp_314 tmp_218)))
        (let ((tmp_316 (bvxor tmp_315 #b1)))
        (let ((tmp_317 (bvand tmp_316 tmp_313)))
        (let ((tmp_318 (bvand tmp_307 tmp_313)))
        (let ((tmp_319 (bvxor tmp_318 #b1)))
        (let ((tmp_320 (bvand tmp_295 tmp_301)))
        (let ((tmp_321 (bvxor tmp_320 #b1)))
        (let ((tmp_322 (bvand tmp_234 tmp_240)))
        (let ((tmp_323 (bvxor tmp_322 #b1)))
        (let ((tmp_324 (bvand tmp_282 tmp_288)))
        (let ((tmp_325 (bvxor tmp_324 #b1)))
        (let ((tmp_326 (bvand tmp_122 tmp_60)))
        (let ((tmp_327 (bvand tmp_51 tmp_141)))
        (let ((tmp_328 (bvand tmp_250 tmp_327)))
        (let ((tmp_329 (bvxor tmp_328 #b1)))
        (let ((tmp_330 (bvxor tmp_327 #b1)))
        (let ((tmp_331 (bvand tmp_251 tmp_330)))
        (let ((tmp_332 (bvxor tmp_331 #b1)))
        (let ((tmp_333 (bvand tmp_332 tmp_329)))
        (let ((tmp_334 (bvand tmp_333 tmp_326)))
        (let ((tmp_335 (bvxor tmp_334 #b1)))
        (let ((tmp_336 (bvxor tmp_326 #b1)))
        (let ((tmp_337 (bvxor tmp_333 #b1)))
        (let ((tmp_338 (bvand tmp_337 tmp_336)))
        (let ((tmp_339 (bvxor tmp_338 #b1)))
        (let ((tmp_340 (bvand tmp_339 tmp_335)))
        (let ((tmp_341 (bvand tmp_269 tmp_275)))
        (let ((tmp_342 (bvxor tmp_341 #b1)))
        (let ((tmp_343 (bvand tmp_143 tmp_72)))
        (let ((tmp_344 (bvand tmp_69 tmp_163)))
        (let ((tmp_345 (bvand tmp_344 tmp_261)))
        (let ((tmp_346 (bvxor tmp_345 #b1)))
        (let ((tmp_347 (bvxor tmp_344 #b1)))
        (let ((tmp_348 (bvand tmp_347 tmp_262)))
        (let ((tmp_349 (bvxor tmp_348 #b1)))
        (let ((tmp_350 (bvand tmp_349 tmp_346)))
        (let ((tmp_351 (bvand tmp_350 tmp_343)))
        (let ((tmp_352 (bvxor tmp_351 #b1)))
        (let ((tmp_353 (bvxor tmp_343 #b1)))
        (let ((tmp_354 (bvxor tmp_350 #b1)))
        (let ((tmp_355 (bvand tmp_354 tmp_353)))
        (let ((tmp_356 (bvxor tmp_355 #b1)))
        (let ((tmp_357 (bvand tmp_356 tmp_352)))
        (let ((tmp_358 (bvand tmp_357 tmp_342)))
        (let ((tmp_359 (bvxor tmp_358 #b1)))
        (let ((tmp_360 (bvxor tmp_357 #b1)))
        (let ((tmp_361 (bvand tmp_360 tmp_341)))
        (let ((tmp_362 (bvxor tmp_361 #b1)))
        (let ((tmp_363 (bvand tmp_362 tmp_359)))
        (let ((tmp_364 (bvand tmp_363 tmp_340)))
        (let ((tmp_365 (bvxor tmp_364 #b1)))
        (let ((tmp_366 (bvxor tmp_340 #b1)))
        (let ((tmp_367 (bvxor tmp_363 #b1)))
        (let ((tmp_368 (bvand tmp_367 tmp_366)))
        (let ((tmp_369 (bvxor tmp_368 #b1)))
        (let ((tmp_370 (bvand tmp_369 tmp_365)))
        (let ((tmp_371 (bvand tmp_370 tmp_325)))
        (let ((tmp_372 (bvxor tmp_371 #b1)))
        (let ((tmp_373 (bvxor tmp_370 #b1)))
        (let ((tmp_374 (bvand tmp_373 tmp_324)))
        (let ((tmp_375 (bvxor tmp_374 #b1)))
        (let ((tmp_376 (bvand tmp_375 tmp_372)))
        (let ((tmp_377 (bvand tmp_376 tmp_323)))
        (let ((tmp_378 (bvxor tmp_377 #b1)))
        (let ((tmp_379 (bvxor tmp_376 #b1)))
        (let ((tmp_380 (bvand tmp_379 tmp_322)))
        (let ((tmp_381 (bvxor tmp_380 #b1)))
        (let ((tmp_382 (bvand tmp_381 tmp_378)))
        (let ((tmp_383 (bvand tmp_382 tmp_321)))
        (let ((tmp_384 (bvxor tmp_383 #b1)))
        (let ((tmp_385 (bvxor tmp_382 #b1)))
        (let ((tmp_386 (bvand tmp_385 tmp_320)))
        (let ((tmp_387 (bvxor tmp_386 #b1)))
        (let ((tmp_388 (bvand tmp_387 tmp_384)))
        (let ((tmp_389 (bvand tmp_388 tmp_319)))
        (let ((tmp_390 (bvxor tmp_389 #b1)))
        (let ((tmp_391 (bvxor tmp_388 #b1)))
        (let ((tmp_392 (bvand tmp_391 tmp_318)))
        (let ((tmp_393 (bvxor tmp_392 #b1)))
        (let ((tmp_394 (bvand tmp_393 tmp_390)))
        (let ((tmp_395 (bvand tmp_50 tmp_15)))
        (let ((tmp_396 (bvand tmp_119 tmp_395)))
        (let ((tmp_397 (bvand tmp_311 tmp_222)))
        (let ((tmp_398 (bvand tmp_388 tmp_397)))
        (let ((tmp_399 (bvand tmp_398 tmp_396)))
        (let ((tmp_400 (bvand tmp_399 tmp_217)))
        (let ((tmp_401 (bvxor tmp_400 #b1)))
        (let ((tmp_402 (bvand tmp_384 tmp_390)))
        (let ((tmp_403 (bvand tmp_402 tmp_401)))
        (let ((tmp_404 (bvxor tmp_403 #b1)))
        (let ((tmp_405 (bvand tmp_372 tmp_378)))
        (let ((tmp_406 (bvxor tmp_405 #b1)))
        (let ((tmp_407 (bvand tmp_329 tmp_335)))
        (let ((tmp_408 (bvxor tmp_407 #b1)))
        (let ((tmp_409 (bvand tmp_359 tmp_365)))
        (let ((tmp_410 (bvxor tmp_409 #b1)))
        (let ((tmp_411 (bvand tmp_122 tmp_141)))
        (let ((tmp_412 (bvand tmp_346 tmp_352)))
        (let ((tmp_413 (bvxor tmp_412 #b1)))
        (let ((tmp_414 (bvand tmp_143 tmp_163)))
        (let ((tmp_415 (bvand tmp_414 tmp_413)))
        (let ((tmp_416 (bvxor tmp_415 #b1)))
        (let ((tmp_417 (bvxor tmp_414 #b1)))
        (let ((tmp_418 (bvand tmp_417 tmp_412)))
        (let ((tmp_419 (bvxor tmp_418 #b1)))
        (let ((tmp_420 (bvand tmp_419 tmp_416)))
        (let ((tmp_421 (bvand tmp_420 tmp_411)))
        (let ((tmp_422 (bvxor tmp_421 #b1)))
        (let ((tmp_423 (bvxor tmp_411 #b1)))
        (let ((tmp_424 (bvxor tmp_420 #b1)))
        (let ((tmp_425 (bvand tmp_424 tmp_423)))
        (let ((tmp_426 (bvxor tmp_425 #b1)))
        (let ((tmp_427 (bvand tmp_426 tmp_422)))
        (let ((tmp_428 (bvand tmp_427 tmp_410)))
        (let ((tmp_429 (bvxor tmp_428 #b1)))
        (let ((tmp_430 (bvxor tmp_427 #b1)))
        (let ((tmp_431 (bvand tmp_430 tmp_409)))
        (let ((tmp_432 (bvxor tmp_431 #b1)))
        (let ((tmp_433 (bvand tmp_432 tmp_429)))
        (let ((tmp_434 (bvand tmp_433 tmp_408)))
        (let ((tmp_435 (bvxor tmp_434 #b1)))
        (let ((tmp_436 (bvxor tmp_433 #b1)))
        (let ((tmp_437 (bvand tmp_436 tmp_407)))
        (let ((tmp_438 (bvxor tmp_437 #b1)))
        (let ((tmp_439 (bvand tmp_438 tmp_435)))
        (let ((tmp_440 (bvand tmp_439 tmp_406)))
        (let ((tmp_441 (bvxor tmp_440 #b1)))
        (let ((tmp_442 (bvxor tmp_439 #b1)))
        (let ((tmp_443 (bvand tmp_442 tmp_405)))
        (let ((tmp_444 (bvxor tmp_443 #b1)))
        (let ((tmp_445 (bvand tmp_444 tmp_441)))
        (let ((tmp_446 (bvand tmp_445 tmp_404)))
        (let ((tmp_447 (bvxor tmp_446 #b1)))
        (let ((tmp_448 (bvxor tmp_445 #b1)))
        (let ((tmp_449 (bvand tmp_448 tmp_403)))
        (let ((tmp_450 (bvxor tmp_449 #b1)))
        (let ((tmp_451 (bvand tmp_450 tmp_447)))
        (let ((tmp_452 (bvand tmp_399 tmp_319)))
        (let ((tmp_453 (bvand tmp_445 tmp_452)))
        (let ((tmp_454 (bvxor tmp_453 #b1)))
        (let ((tmp_455 (bvxor tmp_402 #b1)))
        (let ((tmp_456 (bvand tmp_445 tmp_455)))
        (let ((tmp_457 (bvxor tmp_456 #b1)))
        (let ((tmp_458 (bvand tmp_457 tmp_454)))
        (let ((tmp_459 (bvand tmp_441 tmp_458)))
        (let ((tmp_460 (bvxor tmp_459 #b1)))
        (let ((tmp_461 (bvand tmp_429 tmp_435)))
        (let ((tmp_462 (bvxor tmp_461 #b1)))
        (let ((tmp_463 (bvand tmp_462 tmp_460)))
        (let ((tmp_464 (bvxor tmp_463 #b1)))
        (let ((tmp_465 (bvand tmp_461 tmp_459)))
        (let ((tmp_466 (bvxor tmp_465 #b1)))
        (let ((tmp_467 (bvand tmp_466 tmp_464)))
        (let ((tmp_468 (bvand tmp_416 tmp_422)))
        (let ((tmp_469 (bvxor tmp_468 #b1)))
        (let ((tmp_470 (bvand tmp_469 tmp_467)))
        (let ((tmp_471 (bvxor tmp_470 #b1)))
        (let ((tmp_472 (bvxor tmp_467 #b1)))
        (let ((tmp_473 (bvand tmp_468 tmp_472)))
        (let ((tmp_474 (bvxor tmp_473 #b1)))
        (let ((tmp_475 (bvand tmp_474 tmp_471)))
        (let ((tmp_476 (concat tmp_475 tmp_451)))
        (let ((tmp_477 (concat tmp_476 tmp_394)))
        (let ((tmp_478 (concat tmp_477 tmp_317)))
        (let ((tmp_479 (concat tmp_478 tmp_222)))
        (let ((tmp_480 (concat tmp_479 tmp_119)))
        (let ((tmp_481 (concat tmp_480 tmp_50)))
        (let ((tmp_482 (concat tmp_481 tmp_15)))
        (let ((tmp_483 (concat #x0 tmp_2)))
        (let ((tmp_484 (concat #x0 tmp_1)))
        (let ((tmp_485 (bvmul tmp_484 tmp_483)))
        (let ((tmp_486 (concat #x0 tmp_0)))
        (let ((tmp_487 (concat #x0 tmp)))
        (let ((tmp_488 (bvmul tmp_487 tmp_486)))
        (let ((tmp_489 (bvadd tmp_488 tmp_485)))
        (let ((tmp_490 (distinct tmp_489 tmp_482)))
        tmp_490)))))))))))))))))))))))))))))))))))))))))))))))))))))))))))))))))))))))))))))))))))))))))))))))))))))))))))))))))))))))))))))))))))))))))))))))))))))))))))))))))))))))))))))))))))))))))))))))))))))))))))))))))))))))))))))))))))))))))))))))))))))))))))))))))))))))))))))))))))))))))))))))))))))))))))))))))))))))))))))))))))))))))))))))))))))))))))))))))))))))))))))))))))))))))))))))))))))))))))))))))))))))))))))))))))))))))))))))))))))))))))))))))))))))))))))))))))))))))))))))))))))))))
(check-sat)

(exit)